k = 72;
b = 36;
AtomicConstraints =  [|
2, 3|
	2, 4|
	2, 5|
	2, 6|
	2, 7|
	2, 17|
	2, 18|
	2, 19|
	3, 4|
	3, 5|
	3, 6|
	3, 7|
	3, 18|
	3, 19|
	4, 5|
	4, 6|
	4, 7|
	4, 18|
	4, 19|
	5, 6|
	5, 7|
	5, 19|
	6, 7|
	1, 2|
	1, 3|
	1, 4|
	1, 5|
	1, 6|
	1, 7|
	1, 8|
	1, 9|
	1, 10|
	1, 11|
	1, 12|
	1, 13|
	1, 14|
	1, 15|
	1, 16|
	1, 17|
	1, 18|
	1, 19|
	9, 2|
	9, 3|
	9, 4|
	9, 5|
	9, 6|
	9, 7|
	9, 10|
	9, 11|
	9, 12|
	9, 13|
	9, 14|
	9, 15|
	9, 16|
	9, 17|
	9, 18|
	9, 19|
	8, 2|
	8, 3|
	8, 4|
	8, 5|
	8, 6|
	8, 7|
	8, 10|
	8, 11|
	8, 12|
	8, 13|
	8, 14|
	8, 15|
	8, 16|
	8, 17|
	8, 18|
	8, 19|
	10, 2|
	10, 3|
	10, 4|
	10, 5|
	10, 6|
	10, 7|
	10, 11|
	10, 12|
	10, 13|
	10, 14|
	10, 15|
	10, 16|
	10, 17|
	10, 18|
	10, 19|
	11, 2|
	11, 3|
	11, 4|
	11, 5|
	11, 6|
	11, 7|
	11, 12|
	11, 13|
	11, 14|
	11, 15|
	11, 16|
	11, 17|
	11, 18|
	11, 19|
	12, 2|
	12, 3|
	12, 4|
	12, 5|
	12, 6|
	12, 7|
	12, 13|
	12, 14|
	12, 15|
	12, 16|
	12, 17|
	12, 18|
	12, 19|
	13, 2|
	13, 3|
	13, 4|
	13, 5|
	13, 6|
	13, 7|
	13, 14|
	13, 15|
	13, 16|
	13, 17|
	13, 18|
	13, 19|
	14, 2|
	14, 3|
	14, 4|
	14, 5|
	14, 6|
	14, 7|
	14, 15|
	14, 16|
	14, 17|
	14, 18|
	14, 19|
	15, 2|
	15, 3|
	15, 4|
	15, 5|
	15, 6|
	15, 7|
	15, 16|
	15, 17|
	15, 18|
	15, 19|
	16, 2|
	16, 3|
	16, 4|
	16, 5|
	16, 6|
	16, 7|
	16, 17|
	16, 18|
	16, 19|
	17, 4|
	17, 5|
	17, 6|
	17, 7|
	17, 18|
	17, 19|
	18, 5|
	18, 6|
	18, 7|
	18, 19|
	19, 6|
	19, 7|
	20, 60|
	20, 57|
	20, 40|
	20, 61|
	20, 47|
	20, 49|
	20, 51|
	20, 71|
	20, 56|
	20, 38|
	20, 72|
	20, 41|
	20, 63|
	20, 62|
	20, 48|
	20, 66|
	20, 55|
	20, 70|
	20, 54|
	20, 65|
	20, 67|
	20, 53|
	20, 64|
	21, 60|
	21, 57|
	21, 40|
	21, 61|
	21, 47|
	21, 49|
	21, 51|
	21, 71|
	21, 56|
	21, 38|
	21, 72|
	21, 41|
	21, 63|
	21, 62|
	21, 48|
	21, 66|
	21, 55|
	21, 70|
	21, 54|
	21, 65|
	21, 42|
	21, 67|
	21, 53|
	21, 64|
	39, 60|
	39, 57|
	39, 40|
	39, 61|
	39, 47|
	39, 49|
	39, 51|
	39, 71|
	39, 56|
	39, 38|
	39, 72|
	39, 41|
	39, 63|
	39, 62|
	39, 48|
	39, 66|
	39, 55|
	39, 70|
	39, 54|
	39, 65|
	39, 42|
	39, 67|
	39, 53|
	39, 64|
	22, 60|
	22, 57|
	22, 40|
	22, 61|
	22, 47|
	22, 49|
	22, 51|
	22, 71|
	22, 56|
	22, 38|
	22, 72|
	22, 41|
	22, 63|
	22, 62|
	22, 48|
	22, 66|
	22, 55|
	22, 70|
	22, 54|
	22, 65|
	22, 42|
	22, 67|
	22, 53|
	22, 64|
	23, 60|
	23, 57|
	23, 40|
	23, 61|
	23, 47|
	23, 49|
	23, 51|
	23, 71|
	23, 56|
	23, 38|
	23, 72|
	23, 41|
	23, 63|
	23, 62|
	23, 48|
	23, 66|
	23, 55|
	23, 70|
	23, 54|
	23, 65|
	23, 42|
	23, 67|
	23, 53|
	23, 64|
	24, 60|
	24, 57|
	24, 40|
	24, 61|
	24, 47|
	24, 49|
	24, 51|
	24, 71|
	24, 56|
	24, 38|
	24, 72|
	24, 41|
	24, 63|
	24, 62|
	24, 48|
	24, 66|
	24, 55|
	24, 70|
	24, 54|
	24, 65|
	24, 42|
	24, 67|
	24, 53|
	24, 64|
	45, 60|
	45, 57|
	45, 40|
	45, 61|
	45, 47|
	45, 49|
	45, 51|
	45, 71|
	45, 56|
	45, 38|
	45, 72|
	45, 41|
	45, 63|
	45, 62|
	45, 48|
	45, 66|
	45, 55|
	45, 70|
	45, 54|
	45, 65|
	45, 42|
	45, 67|
	45, 53|
	45, 64|
	25, 1|
	25, 2|
	25, 3|
	25, 4|
	25, 5|
	25, 6|
	25, 7|
	25, 8|
	25, 9|
	25, 10|
	25, 11|
	25, 12|
	25, 13|
	25, 14|
	25, 15|
	25, 16|
	25, 17|
	25, 18|
	25, 19|
	25, 60|
	25, 57|
	25, 40|
	25, 61|
	25, 47|
	25, 49|
	25, 51|
	25, 71|
	25, 56|
	25, 38|
	25, 72|
	25, 41|
	25, 63|
	25, 62|
	25, 48|
	25, 66|
	25, 55|
	25, 53|
	26, 2|
	26, 4|
	26, 5|
	26, 6|
	26, 7|
	26, 9|
	26, 11|
	26, 12|
	26, 13|
	26, 14|
	26, 15|
	26, 16|
	26, 17|
	26, 18|
	26, 19|
	26, 30|
	26, 60|
	26, 57|
	26, 40|
	26, 61|
	26, 47|
	26, 49|
	26, 51|
	26, 71|
	26, 56|
	26, 38|
	26, 72|
	26, 41|
	26, 63|
	26, 62|
	26, 48|
	26, 66|
	26, 55|
	26, 53|
	26, 64|
	46, 2|
	46, 4|
	46, 5|
	46, 6|
	46, 7|
	46, 11|
	46, 12|
	46, 13|
	46, 14|
	46, 15|
	46, 17|
	46, 18|
	46, 19|
	46, 30|
	46, 36|
	46, 60|
	46, 57|
	46, 40|
	46, 61|
	46, 47|
	46, 49|
	46, 51|
	46, 71|
	46, 56|
	46, 38|
	46, 72|
	46, 41|
	46, 63|
	46, 62|
	46, 48|
	46, 66|
	46, 55|
	46, 70|
	46, 53|
	46, 64|
	27, 30|
	27, 36|
	27, 60|
	27, 57|
	27, 40|
	27, 61|
	27, 47|
	27, 49|
	27, 51|
	27, 71|
	27, 56|
	27, 38|
	27, 72|
	27, 41|
	27, 63|
	27, 62|
	27, 48|
	27, 66|
	27, 55|
	27, 70|
	27, 67|
	27, 53|
	27, 64|
	28, 36|
	28, 60|
	28, 57|
	28, 40|
	28, 61|
	28, 47|
	28, 49|
	28, 51|
	28, 71|
	28, 56|
	28, 38|
	28, 72|
	28, 41|
	28, 63|
	28, 62|
	28, 48|
	28, 66|
	28, 55|
	28, 70|
	28, 67|
	28, 53|
	28, 64|
	29, 60|
	29, 57|
	29, 40|
	29, 61|
	29, 47|
	29, 49|
	29, 51|
	29, 71|
	29, 56|
	29, 38|
	29, 72|
	29, 41|
	29, 63|
	29, 62|
	29, 48|
	29, 66|
	29, 55|
	29, 70|
	29, 67|
	29, 53|
	29, 64|
	52, 20|
	52, 21|
	52, 60|
	52, 57|
	52, 40|
	52, 61|
	52, 47|
	52, 49|
	52, 51|
	52, 71|
	52, 56|
	52, 38|
	52, 72|
	52, 41|
	52, 63|
	52, 62|
	52, 48|
	52, 66|
	52, 55|
	52, 70|
	52, 54|
	52, 65|
	52, 42|
	52, 67|
	52, 53|
	52, 64|
	31, 21|
	31, 39|
	31, 60|
	31, 57|
	31, 40|
	31, 61|
	31, 47|
	31, 49|
	31, 51|
	31, 71|
	31, 56|
	31, 38|
	31, 72|
	31, 41|
	31, 63|
	31, 62|
	31, 48|
	31, 66|
	31, 55|
	31, 70|
	31, 54|
	31, 65|
	31, 42|
	31, 67|
	31, 53|
	31, 64|
	32, 39|
	32, 60|
	32, 57|
	32, 40|
	32, 61|
	32, 47|
	32, 49|
	32, 51|
	32, 71|
	32, 56|
	32, 38|
	32, 72|
	32, 41|
	32, 63|
	32, 62|
	32, 48|
	32, 66|
	32, 55|
	32, 70|
	32, 54|
	32, 65|
	32, 42|
	32, 67|
	32, 53|
	32, 64|
	44, 22|
	44, 60|
	44, 57|
	44, 40|
	44, 61|
	44, 47|
	44, 49|
	44, 51|
	44, 71|
	44, 56|
	44, 38|
	44, 72|
	44, 41|
	44, 63|
	44, 62|
	44, 48|
	44, 66|
	44, 55|
	44, 70|
	44, 54|
	44, 65|
	44, 42|
	44, 67|
	44, 53|
	44, 64|
	37, 22|
	37, 23|
	37, 60|
	37, 57|
	37, 40|
	37, 61|
	37, 47|
	37, 49|
	37, 51|
	37, 71|
	37, 56|
	37, 38|
	37, 72|
	37, 41|
	37, 63|
	37, 62|
	37, 48|
	37, 66|
	37, 55|
	37, 70|
	37, 54|
	37, 65|
	37, 42|
	37, 67|
	37, 53|
	37, 64|
	33, 22|
	33, 23|
	33, 24|
	33, 60|
	33, 57|
	33, 40|
	33, 61|
	33, 47|
	33, 49|
	33, 51|
	33, 71|
	33, 56|
	33, 38|
	33, 72|
	33, 41|
	33, 63|
	33, 62|
	33, 48|
	33, 66|
	33, 55|
	33, 70|
	33, 54|
	33, 65|
	33, 42|
	33, 67|
	33, 53|
	33, 64|
	34, 22|
	34, 23|
	34, 24|
	34, 45|
	34, 60|
	34, 57|
	34, 40|
	34, 61|
	34, 47|
	34, 49|
	34, 51|
	34, 71|
	34, 56|
	34, 38|
	34, 72|
	34, 41|
	34, 63|
	34, 62|
	34, 48|
	34, 66|
	34, 55|
	34, 70|
	34, 54|
	34, 65|
	34, 42|
	34, 67|
	34, 53|
	34, 64|
	35, 23|
	35, 24|
	35, 45|
	35, 60|
	35, 57|
	35, 40|
	35, 61|
	35, 47|
	35, 49|
	35, 51|
	35, 71|
	35, 56|
	35, 38|
	35, 72|
	35, 41|
	35, 63|
	35, 62|
	35, 48|
	35, 66|
	35, 55|
	35, 70|
	35, 54|
	35, 65|
	35, 42|
	35, 67|
	35, 53|
	35, 64|
	30, 18|
	30, 60|
	30, 57|
	30, 40|
	30, 61|
	30, 47|
	30, 49|
	30, 51|
	30, 71|
	30, 56|
	30, 38|
	30, 72|
	30, 41|
	30, 63|
	30, 62|
	30, 48|
	30, 66|
	30, 55|
	30, 53|
	30, 64|
	36, 60|
	36, 57|
	36, 40|
	36, 61|
	36, 47|
	36, 49|
	36, 51|
	36, 71|
	36, 56|
	36, 38|
	36, 72|
	36, 41|
	36, 63|
	36, 62|
	36, 48|
	36, 66|
	36, 55|
	36, 70|
	36, 53|
	36, 64|
	60, 51|
	61, 51|
	47, 51|
	49, 57|
	56, 57|
	56, 40|
	56, 47|
	56, 49|
	38, 57|
	38, 40|
	38, 49|
	72, 57|
	72, 40|
	71, 60|
	71, 57|
	71, 40|
	71, 61|
	71, 47|
	71, 49|
	71, 51|
	71, 55|
	62, 60|
	62, 57|
	62, 40|
	62, 61|
	62, 47|
	62, 49|
	62, 51|
	62, 56|
	62, 55|
	48, 57|
	48, 40|
	48, 61|
	48, 47|
	48, 49|
	48, 51|
	48, 56|
	48, 38|
	66, 57|
	66, 40|
	66, 47|
	66, 49|
	66, 56|
	66, 38|
	66, 72|
	55, 60|
	55, 57|
	55, 40|
	55, 61|
	55, 47|
	55, 49|
	55, 51|
	54, 41|
	54, 63|
	65, 41|
	65, 63|
	42, 41|
	42, 63|
	70, 60|
	70, 57|
	70, 40|
	70, 61|
	70, 47|
	70, 49|
	70, 51|
	70, 71|
	70, 56|
	70, 38|
	70, 72|
	70, 41|
	70, 63|
	70, 62|
	70, 48|
	70, 66|
	70, 55|
	70, 53|
	70, 64|
	67, 60|
	67, 57|
	67, 40|
	67, 61|
	67, 47|
	67, 49|
	67, 51|
	67, 71|
	67, 56|
	67, 38|
	67, 72|
	67, 41|
	67, 63|
	67, 62|
	67, 48|
	67, 66|
	67, 55|
	67, 53|
	67, 64|
	53, 60|
	53, 57|
	53, 40|
	53, 61|
	53, 47|
	53, 49|
	53, 51|
	53, 71|
	53, 56|
	53, 38|
	53, 72|
	53, 41|
	53, 63|
	53, 62|
	53, 48|
	53, 66|
	53, 55|
	64, 60|
	64, 57|
	64, 40|
	64, 61|
	64, 47|
	64, 49|
	64, 51|
	64, 71|
	64, 56|
	64, 38|
	64, 72|
	64, 41|
	64, 63|
	64, 62|
	64, 48|
	64, 66|
	64, 55|
	59, 57|
	59, 40|
	59, 47|
	59, 49|
	59, 56|
	59, 38|
	59, 72|
	59, 41|
	59, 63|
	59, 48|
	59, 66|
	59, 54|
	59, 65|
	59, 42|
	59, 67|
	59, 64|
	58, 41|
	58, 63|
	58, 54|
	58, 65|
	58, 42|
	43, 41|
	43, 63|
	43, 54|
	43, 65|
	43, 42|
	69, 60|
	69, 57|
	69, 40|
	69, 61|
	69, 47|
	69, 49|
	69, 51|
	69, 71|
	69, 56|
	69, 38|
	69, 72|
	69, 41|
	69, 63|
	69, 62|
	69, 48|
	69, 66|
	69, 55|
	69, 70|
	69, 54|
	69, 65|
	69, 42|
	69, 67|
	69, 53|
	69, 64|
	69, 59|
	68, 57|
	68, 40|
	68, 61|
	68, 47|
	68, 49|
	68, 51|
	68, 71|
	68, 56|
	68, 38|
	68, 72|
	68, 41|
	68, 63|
	68, 62|
	68, 48|
	68, 66|
	68, 70|
	68, 54|
	68, 65|
	68, 42|
	68, 67|
	68, 53|
	68, 64|
	68, 59|
	50, 57|
	50, 40|
	50, 47|
	50, 49|
	50, 56|
	50, 38|
	50, 72|
	50, 41|
	50, 63|
	50, 48|
	50, 66|
	50, 54|
	50, 65|
	50, 42|
	50, 67|
	50, 64|
	50, 59|];
DisjunctiveConstraints =  [|2, 42, 2, 6|
	2, 43, 2, 7|
	3, 43, 3, 7|
	1, 39, 1, 3|
	1, 40, 1, 4|
	1, 38, 1, 2|
	1, 41, 1, 5|
	1, 42, 1, 6|
	1, 43, 1, 7|
	9, 16, 9, 52|
	9, 51, 9, 15|
	9, 41, 9, 5|
	9, 55, 9, 19|
	9, 54, 9, 18|
	9, 42, 9, 6|
	9, 53, 9, 17|
	9, 43, 9, 7|
	8, 39, 8, 3|
	8, 40, 8, 4|
	8, 38, 8, 2|
	8, 41, 8, 5|
	8, 42, 8, 6|
	8, 43, 8, 7|
	10, 16, 10, 52|
	10, 51, 10, 15|
	10, 41, 10, 5|
	10, 55, 10, 19|
	10, 54, 10, 18|
	10, 42, 10, 6|
	10, 53, 10, 17|
	10, 43, 10, 7|
	11, 3, 39, 11|
	11, 16, 11, 52|
	11, 55, 11, 19|
	11, 54, 11, 18|
	11, 42, 11, 6|
	11, 53, 11, 17|
	11, 43, 11, 7|
	12, 2, 38, 12|
	12, 3, 39, 12|
	12, 55, 12, 19|
	12, 54, 12, 18|
	12, 42, 12, 6|
	12, 53, 12, 17|
	12, 43, 12, 7|
	13, 2, 38, 13|
	13, 3, 39, 13|
	13, 55, 13, 19|
	13, 54, 13, 18|
	13, 53, 13, 17|
	13, 43, 13, 7|
	14, 2, 38, 14|
	14, 3, 39, 14|
	14, 4, 40, 14|
	14, 55, 14, 19|
	14, 54, 14, 18|
	14, 53, 14, 17|
	15, 2, 38, 15|
	15, 3, 39, 15|
	15, 4, 40, 15|
	15, 5, 41, 15|
	15, 55, 15, 19|
	15, 54, 15, 18|
	16, 3, 39, 16|
	16, 4, 40, 16|
	16, 5, 41, 16|
	16, 55, 16, 19|
	17, 5, 41, 17|
	17, 6, 42, 17|
	17, 7, 43, 17|
	18, 6, 42, 18|
	18, 7, 43, 18|
	20, 3, 39, 20|
	21, 20, 21, 39|
	23, 22, 23, 24|
	24, 23, 24, 45|
	25, 9, 25, 45|
	25, 10, 25, 46|
	25, 16, 25, 52|
	25, 38, 25, 2|
	26, 14, 26, 50|
	26, 25, 26, 46|
	26, 40, 26, 4|
	26, 47, 26, 11|
	26, 49, 26, 13|
	26, 51, 26, 15|
	26, 38, 26, 2|
	26, 41, 26, 5|
	26, 48, 26, 12|
	26, 55, 26, 19|
	26, 54, 26, 18|
	26, 42, 26, 6|
	26, 53, 26, 17|
	26, 43, 26, 7|
	46, 26, 46, 27|
	46, 55, 46, 19|
	46, 54, 46, 18|
	27, 46, 27, 28|
	28, 1, 37, 28|
	28, 8, 44, 28|
	28, 27, 28, 29|
	29, 2, 38, 29|
	29, 9, 45, 29|
	29, 10, 46, 29|
	29, 11, 47, 29|
	29, 12, 48, 29|
	29, 13, 49, 29|
	29, 14, 50, 29|
	32, 31, 32, 44|
	44, 32, 44, 37|
	37, 44, 37, 33|
	33, 37, 33, 34|
	34, 33, 34, 35|
	36, 1, 37, 36|
	61, 60, 61, 47|
	47, 61, 47, 49|
	56, 47, 11, 56|
	56, 49, 56, 13|
	38, 57, 38, 21|
	38, 49, 13, 38|
	38, 56, 38, 72|
	72, 57, 72, 21|
	72, 40, 72, 4|
	71, 60, 71, 24|
	71, 61, 71, 25|
	71, 51, 71, 15|
	62, 60, 24, 62|
	62, 61, 62, 25|
	62, 47, 62, 11|
	62, 51, 62, 15|
	62, 71, 62, 48|
	48, 61, 25, 48|
	48, 47, 48, 11|
	48, 49, 48, 13|
	48, 51, 15, 48|
	48, 62, 48, 66|
	66, 47, 11, 66|
	66, 49, 66, 13|
	55, 60, 55, 24|
	55, 61, 55, 25|
	55, 51, 55, 15|
	54, 57, 21, 54|
	54, 41, 54, 5|
	65, 40, 4, 65|
	65, 41, 65, 5|
	65, 63, 65, 27|
	65, 54, 65, 42|
	42, 41, 5, 42|
	42, 63, 42, 27|
	70, 60, 70, 24|
	70, 61, 70, 25|
	70, 51, 70, 15|
	70, 71, 70, 35|
	70, 62, 70, 26|
	70, 55, 70, 19|
	67, 47, 67, 11|
	67, 71, 35, 67|
	67, 62, 67, 26|
	67, 48, 67, 12|
	67, 55, 19, 67|
	53, 60, 53, 24|
	53, 61, 53, 25|
	53, 51, 53, 15|
	53, 71, 53, 35|
	53, 62, 53, 26|
	53, 55, 53, 19|
	64, 47, 64, 11|
	64, 71, 35, 64|
	64, 62, 64, 26|
	64, 48, 64, 12|
	64, 55, 19, 64|
	59, 49, 59, 13|
	59, 56, 59, 20|
	59, 71, 35, 59|
	59, 66, 59, 30|
	59, 55, 19, 59|
	59, 67, 31, 59|
	59, 64, 28, 59|
	58, 49, 13, 58|
	58, 38, 2, 58|
	58, 54, 58, 18|
	43, 57, 21, 43|
	43, 63, 43, 27|
	43, 54, 18, 43|
	43, 65, 43, 29|
	43, 42, 43, 6|
	69, 34, 69, 70|
	69, 60, 69, 24|
	69, 61, 69, 25|
	69, 47, 69, 11|
	69, 51, 69, 15|
	69, 71, 69, 35|
	69, 62, 69, 26|
	69, 53, 69, 17|
	69, 64, 69, 28|
	68, 47, 68, 11|
	68, 49, 68, 13|
	68, 48, 68, 12|
	68, 70, 34, 68|
	68, 67, 68, 31|
	68, 53, 17, 68|
	68, 64, 68, 28|
	68, 69, 68, 50|
	50, 49, 50, 13|
	50, 56, 50, 20|
	50, 71, 35, 50|
	50, 66, 50, 30|
	50, 55, 19, 50|
	50, 67, 31, 50|
	50, 64, 28, 50|];
SoftAtomicConstraints =  [|
8, 9|
3, 17|
36, 20|
20, 21|
39, 22|
22, 23|
23, 24|
25, 26|
46, 27|
27, 28|
28, 29|
52, 31|
31, 32|
37, 33|
33, 34|
34, 35|
30, 36|
44, 37|
56, 38|
21, 39|
57, 40|
72, 41|
65, 42|
58, 43|
32, 44|
24, 45|
26, 46|
61, 47|
62, 48|
47, 49|
68, 50|
29, 52|
64, 54|
55, 56|
51, 57|
59, 58|
60, 61|
71, 62|
41, 63|
53, 64|
54, 65|
48, 66|
70, 67|
69, 68|
38, 72|];
DirectSuccessors =  [];
